000 -99 000 000 000 000 000 000 -99 -99 -99 -99 -99 000 000 -99 000 000 000 000 000 000 000 -99 -99 -99 000 000 000 -99 -99
000 000 000 000 000 000 000 000 -99 -99 -99 -99 -99 -99 000 -99 -99 000 000 000 000 000 000 000 000 -99 -99 000 000 -99 -99
000 -99 000 000 000 000 000 000 000 000 -99 -99 -99 -99 000 -99 -99 000 000 000 000 000 000 000 000 -99 -99 000 000 -99 -99
000 000 000 000 000 000 000 -99 000 000 -99 000 000 -99 -99 -99 -99 -99 -99 000 000 000 000 000 000 000 -99 -99 -99 -99 -99
000 000 000 000 000 000 000 000 -99 000 -99 000 000 000 -99 000 -99 -99 -99 000 000 000 000 000 000 000 -99 -99 -99 -99 -99
000 000 000 000 000 000 000 000 -99 -99 -99 -99 000 000 000 000 -99 -99 -99 000 000 000 000 000 001 000 -99 -99 -99 -99 000
000 000 000 000 000 000 000 000 -99 -99 -99 -99 000 000 000 000 -99 -99 -99 000 000 000 000 000 001 000 -99 -99 -99 -99 -99
000 000 000 000 000 000 000 -99 000 -99 -99 -99 000 -99 000 000 000 000 -99 -99 000 000 000 000 001 000 001 -99 -99 -99 -99
000 000 000 000 000 000 000 000 000 -99 000 -99 -99 -99 000 000 000 000 000 -99 000 000 -99 000 000 001 001 000 -99 -99 -99
000 000 000 000 000 000 000 000 000 000 000 -99 -99 -99 000 000 000 000 000 000 000 000 -99 000 000 000 002 000 -99 -99 -99
000 000 -99 000 000 000 -99 000 000 000 000 000 -99 -99 -99 000 -99 000 000 000 000 000 -99 000 000 000 002 000 000 000 000
000 000 000 000 000 000 000 000 000 000 000 000 -99 -99 -99 -99 -99 000 000 000 000 000 -99 000 000 000 001 001 000 000 000
000 000 000 000 000 000 000 000 000 000 000 000 000 -99 -99 -99 000 000 000 000 000 000 -99 000 000 000 001 001 003 004 000
000 000 000 000 000 000 000 000 000 -99 000 000 000 000 -99 000 000 -99 000 000 000 000 -99 000 000 000 001 003 004 009 001
000 000 000 -99 000 000 000 000 000 -99 -99 -99 000 000 000 000 000 000 000 000 000 001 -99 000 000 000 001 003 006 023 003
000 000 000 000 000 000 000 000 000 -99 -99 -99 000 000 000 000 000 000 000 000 000 003 005 002 001 000 002 005 025 072 030
000 000 000 000 -99 000 000 000 000 -99 -99 -99 -99 000 000 000 000 000 000 000 000 004 005 004 005 002 001 005 013 061 047
000 000 000 -99 -99 -99 000 000 000 -99 -99 -99 -99 000 000 000 000 000 000 001 001 005 010 005 006 003 001 006 015 075 040
000 000 000 000 -99 -99 000 000 000 -99 -99 -99 -99 000 000 -99 000 000 000 001 001 003 007 010 006 003 005 014 041 071 048
000 000 000 000 000 -99 -99 000 000 -99 000 000 -99 000 000 -99 000 000 000 000 000 000 004 005 005 003 005 015 033 054 037
000 000 000 000 000 -99 -99 000 000 000 -99 000 -99 000 000 000 000 000 000 000 000 000 000 -99 -99 004 007 018 019 017 016
000 000 000 000 000 000 -99 000 000 000 -99 000 000 000 000 000 000 000 000 000 000 000 000 -99 -99 004 007 018 019 013 012
000 000 000 000 000 000 000 000 000 000 000 000 000 000 000 000 000 000 000 000 000 000 000 -99 -99 -99 -99 -99 -99 007 007
000 000 000 000 000 000 000 000 000 000 000 000 000 000 000 000 000 000 000 000 000 000 000 -99 -99 -99 -99 -99 -99 -99 -99
000 000 000 000 000 000 000 000 000 000 000 000 000 000 000 000 000 000 000 000 000 000 000 -99 -99 -99 -99 -99 -99 003 002
000 000 000 000 000 000 000 000 000 000 000 000 000 000 000 000 000 000 000 000 000 000 000 -99 -99 -99 -99 -99 -99 003 003
000 000 000 000 000 000 000 000 000 000 000 000 000 000 000 000 000 000 000 000 000 000 000 -99 -99 -99 -99 -99 -99 002 002
000 000 000 000 000 000 000 000 000 000 000 000 000 000 000 000 000 000 000 000 000 000 000 -99 -99 -99 -99 -99 002 002 003
000 000 000 000 000 000 000 000 000 000 000 000 000 000 000 -99 000 000 000 000 000 000 -99 -99 -99 -99 -99 -99 003 003 005
000 000 000 000 000 000 000 000 000 000 000 000 000 000 000 000 000 000 000 000 000 000 -99 -99 -99 001 001 -99 003 003 005
000 000 000 000 000 000 000 000 000 000 000 001 001 000 000 000 000 000 000 000 000 000 001 001 002 001 001 -99 004 004 004
000 000 000 000 000 000 000 000 000 000 000 001 001 000 000 000 000 000 000 000 000 000 001 001 001 001 001 003 003 003 003
000 000 000 000 000 000 000 000 000 000 000 000 001 001 000 000 000 000 000 -99 -99 000 000 001 001 002 003 002 005 003 004
000 000 000 000 000 000 000 000 000 000 000 000 001 001 000 000 000 000 000 000 -99 000 000 001 001 002 003 001 003 003 003
000 000 000 000 000 000 000 000 000 000 000 000 001 002 000 000 000 000 000 000 000 000 000 000 001 002 002 001 002 002 003
000 000 000 000 000 000 000 000 000 000 000 000 001 002 001 000 000 000 000 000 000 000 000 000 000 001 001 002 002 002 002
000 000 000 000 000 000 000 000 000 000 000 000 001 001 001 001 001 000 000 000 000 000 000 000 000 001 001 002 002 001 001
000 -99 000 000 000 000 000 000 000 000 000 000 000 001 002 003 001 000 000 000 000 000 000 000 000 000 001 002 001 001 000
000 -99 000 000 000 000 000 000 000 000 000 000 001 001 004 002 001 000 000 000 000 000 000 000 000 000 000 000 000 000 000
-99 -99 000 000 -99 000 000 000 000 000 000 000 001 003 004 002 001 001 000 001 000 000 000 000 000 000 001 000 000 000 000
-99 000 000 -99 -99 -99 000 000 000 001 000 000 000 001 001 001 001 001 001 001 000 000 000 000 000 000 000 000 000 000 000
000 000 -99 -99 -99 -99 000 000 000 000 000 000 001 001 001 000 000 000 001 001 001 001 000 000 000 000 000 000 000 000 000
000 000 -99 -99 -99 -99 000 000 000 000 000 000 000 001 001 000 000 000 001 001 002 002 000 000 000 000 000 000 000 000 000
000 -99 -99 -99 000 000 000 000 000 000 000 000 000 001 001 000 000 001 001 002 002 002 003 001 000 000 000 000 000 000 000
000 000 -99 000 000 000 000 000 000 000 000 000 000 001 001 000 001 001 001 002 002 003 005 003 004 002 002 000 000 -99 000
000 -99 000 000 000 000 000 000 000 000 000 000 000 001 000 000 001 001 000 002 004 005 003 003 004 003 002 003 004 000 000
000 -99 000 000 000 000 000 000 000 000 000 000 000 001 000 000 000 000 002 003 006 006 006 006 003 003 003 004 002 001 002
000 000 000 000 000 000 000 000 000 000 000 000 001 000 000 000 001 001 001 003 004 006 005 004 004 006 005 004 001 001 004
000 000 000 000 000 000 000 000 000 000 000 001 000 000 000 000 000 001 002 004 006 007 007 004 003 006 005 007 005 004 003
000 -99 -99 000 000 000 000 001 001 000 000 001 000 000 000 000 001 001 002 004 009 008 008 008 003 004 006 010 010 019 024
000 000 000 000 000 000 001 001 001 001 001 000 000 000 000 000 001 002 003 005 007 014 018 021 005 007 011 013 011 021 033
000 -99 -99 000 000 000 001 002 001 001 001 000 000 000 000 000 001 002 003 004 007 011 023 035 037 017 021 033 022 029 016
000 -99 000 000 000 000 001 002 001 000 000 000 000 001 000 001 001 001 001 003 007 013 028 044 029 046 083 050 022 012 001
-99 000 000 000 000 001 002 001 001 001 000 000 000 001 001 001 001 001 001 001 003 013 027 029 024 039 060 069 023 002 000
000 000 000 000 000 001 001 001 001 000 000 000 001 001 001 001 001 002 001 001 003 009 023 024 021 048 043 011 003 001 000
